$molecule
0 1
H            .000000     .000000    2.129296
N            .000000     .000000    1.118684
C            .000000    1.124516     .333565
C            .000000   -1.124516     .333565
C            .000000     .708407    -.983807
C            .000000    -.708407    -.983807
H            .000000    2.112872     .770496
H            .000000   -2.112872     .770496
H            .000000    1.357252   -1.849085
H            .000000   -1.357252   -1.849085
$end

$rem
 jobtype sp
 exchange hf
 basis  sto-3g
 print_orbitals  true
 molden_format   true
 sym_ignore  true
$end
